62 85 17 39 52 20 1 71 33 41 81 35 83 90 74 24 56 46 50 58 26 6 25 51 31 88 84 77 12 9 65 36 98 21 72 99 59 14 69 78 22 87 60 66 93 70 27 38 7 63 67 76 86 73 29 94 42 57 79 43 30 64 49 5 4 16 15 44 92 0 37 23 18 96 89 95 68 34 8 61 19 40 28 53 3 32 55 91 47 10 11 48 80 82 97 54 2 13 75 45 

